WARNING: for repeatability, setting FPU to use double precision
============================[ Problem Statistics ]=============================
|                                                                             |
|  Number of variables:            50                                         |
|  Number of clauses:             218                                         |
|  Parse time:                   0.00 s                                       |
|                                                                             |
============================[ Search Statistics ]==============================
| Conflicts |          ORIGINAL         |          LEARNT          | Progress |
|           |    Vars  Clauses Literals |    Limit  Clauses Lit/Cl |          |
===============================================================================
===============================================================================
restarts              : 1
conflicts             : 55             (36863 /sec)
decisions             : 72             (0.00 % random) (48257 /sec)
propagations          : 780            (522788 /sec)
conflict literals     : 243            (14.74 % deleted)
Memory used           : 20.00 MB
CPU time              : 0.001492 s

SATISFIABLE
